param set_len = 22;
param target := 3018004500;
param values := [1] 169638458 [2] 181183844 [3] 459836692 [4] 409838354 [5] 426833461 [6] 271717906 [7] 486616132 [8] 87622199 [9] 372372970 [10] 426707265 [11] 355199314 [12] 435092593 [13] 112128568 [14] 314895332 [15] 101742892 [16] 14709403 [17] 267496553 [18] 15410595 [19] 325774960 [20] 65542001 [21] 153506804 [22] 300098501 ;
